<number of tasks>
20

<cycle time>
1000

<order strength>
0,505


<task times>
1 85
2 262
3 34
4 93
5 40
6 149
7 56
8 103
9 53
10 41
11 118
12 121
13 124
14 44
15 199
16 95
17 27
18 151
19 43
20 95

<precedence relations>
1,11
2,11
3,4
3,5
4,11
5,6
5,7
5,8
5,9
5,10
6,11
7,11
8,20
9,12
10,12
11,13
11,14
11,15
11,16
12,19
14,18
14,20
15,17
16,19
16,20

<end>
